c nIsolatedPIs 0
c maxPI 16
p cnf 81 196
c gate 17 -8 16 0
-8 -17 0
16 -17 0
8 -16 17 0
c gate 18 8 -16 0
8 -18 0
-16 -18 0
-8 16 18 0
c gate 19 -17 -18 0
-17 -19 0
-18 -19 0
17 18 19 0
c gate 20 -7 15 0
-7 -20 0
15 -20 0
7 -15 20 0
c gate 21 5 -13 0
5 -21 0
-13 -21 0
-5 13 21 0
c gate 22 -5 13 0
-5 -22 0
13 -22 0
5 -13 22 0
c gate 23 -21 -22 0
-21 -23 0
-22 -23 0
21 22 23 0
c gate 24 6 -14 0
6 -24 0
-14 -24 0
-6 14 24 0
c gate 25 -6 14 0
-6 -25 0
14 -25 0
6 -14 25 0
c gate 26 -24 -25 0
-24 -26 0
-25 -26 0
24 25 26 0
c gate 27 23 26 0
23 -27 0
26 -27 0
-23 -26 27 0
c gate 28 -22 -25 0
-22 -28 0
-25 -28 0
22 25 28 0
c gate 29 -24 -28 0
-24 -29 0
-28 -29 0
24 28 29 0
c gate 30 -27 -29 0
-27 -30 0
-29 -30 0
27 29 30 0
c gate 31 -4 12 0
-4 -31 0
12 -31 0
4 -12 31 0
c gate 32 4 -12 0
4 -32 0
-12 -32 0
-4 12 32 0
c gate 33 -3 11 0
-3 -33 0
11 -33 0
3 -11 33 0
c gate 34 3 -11 0
3 -34 0
-11 -34 0
-3 11 34 0
c gate 35 -2 10 0
-2 -35 0
10 -35 0
2 -10 35 0
c gate 36 2 -10 0
2 -36 0
-10 -36 0
-2 10 36 0
c gate 37 -35 -36 0
-35 -37 0
-36 -37 0
35 36 37 0
c gate 38 1 -9 0
1 -38 0
-9 -38 0
-1 9 38 0
c gate 39 37 -38 0
37 -39 0
-38 -39 0
-37 38 39 0
c gate 40 -35 -39 0
-35 -40 0
-39 -40 0
35 39 40 0
c gate 41 -34 -40 0
-34 -41 0
-40 -41 0
34 40 41 0
c gate 42 -33 -41 0
-33 -42 0
-41 -42 0
33 41 42 0
c gate 43 -32 -42 0
-32 -43 0
-42 -43 0
32 42 43 0
c gate 44 -31 -43 0
-31 -44 0
-43 -44 0
31 43 44 0
c gate 45 -29 44 0
-29 -45 0
44 -45 0
29 -44 45 0
c gate 46 -30 -45 0
-30 -46 0
-45 -46 0
30 45 46 0
c gate 47 -20 -46 0
-20 -47 0
-46 -47 0
20 46 47 0
c gate 48 7 -15 0
7 -48 0
-15 -48 0
-7 15 48 0
c gate 49 -1 9 0
-1 -49 0
9 -49 0
1 -9 49 0
c gate 50 39 -49 0
39 -50 0
-49 -50 0
-39 49 50 0
c gate 51 -31 -32 0
-31 -51 0
-32 -51 0
31 32 51 0
c gate 52 -33 -34 0
-33 -52 0
-34 -52 0
33 34 52 0
c gate 53 51 52 0
51 -53 0
52 -53 0
-51 -52 53 0
c gate 54 50 53 0
50 -54 0
53 -54 0
-50 -53 54 0
c gate 55 -20 -48 0
-20 -55 0
-48 -55 0
20 48 55 0
c gate 56 19 55 0
19 -56 0
55 -56 0
-19 -55 56 0
c gate 57 27 56 0
27 -57 0
56 -57 0
-27 -56 57 0
c gate 58 54 57 0
54 -58 0
57 -58 0
-54 -57 58 0
c gate 59 -30 -48 0
-30 -59 0
-48 -59 0
30 48 59 0
c gate 60 -20 -59 0
-20 -60 0
-59 -60 0
20 59 60 0
c gate 61 -18 -60 0
-18 -61 0
-60 -61 0
18 60 61 0
c gate 62 -17 -61 0
-17 -62 0
-61 -62 0
17 61 62 0
c gate 63 44 57 0
44 -63 0
57 -63 0
-44 -57 63 0
c gate 64 -62 -63 0
-62 -64 0
-63 -64 0
62 63 64 0
c gate 65 -58 -64 0
-58 -65 0
-64 -65 0
58 64 65 0
c gate 66 -48 -65 0
-48 -66 0
-65 -66 0
48 65 66 0
c gate 67 -47 66 0
-47 -67 0
66 -67 0
47 -66 67 0
c gate 68 -44 -54 0
-44 -68 0
-54 -68 0
44 54 68 0
c gate 69 23 -68 0
23 -69 0
-68 -69 0
-23 68 69 0
c gate 70 26 69 0
26 -70 0
69 -70 0
-26 -69 70 0
c gate 71 59 -70 0
59 -71 0
-70 -71 0
-59 70 71 0
c gate 72 -20 65 0
-20 -72 0
65 -72 0
20 -65 72 0
c gate 73 -71 72 0
-71 -73 0
72 -73 0
71 -72 73 0
c gate 74 -67 -73 0
-67 -74 0
-73 -74 0
67 73 74 0
c gate 75 -19 74 0
-19 -75 0
74 -75 0
19 -74 75 0
c gate 76 19 -74 0
19 -76 0
-74 -76 0
-19 74 76 0
c gate 77 17 -48 0
17 -77 0
-48 -77 0
-17 48 77 0
c gate 78 18 60 0
18 -78 0
60 -78 0
-18 -60 78 0
c gate 79 -77 -78 0
-77 -79 0
-78 -79 0
77 78 79 0
c gate 80 -76 79 0
-76 -80 0
79 -80 0
76 -79 80 0
c gate 81 -75 80 0
-75 -81 0
80 -81 0
75 -80 81 0
c PO
81 0
